SCIP version 5.0.0 [precision: 8 byte] [memory: block] [mode: optimized] [LP solver: NONE] [GitHash: 3bbd232]
Copyright (C) 2002-2017 Konrad-Zuse-Zentrum fuer Informationstechnik Berlin (ZIB)

External codes: 
  Readline EditLine w  GNU library for command line editing (gnu.org/s/readline)
  CppAD 20160000.1     Algorithmic Differentiation of C++ algorithms developed by B. Bell (www.coin-or.org/CppAD)
  ZLIB 1.2.5           General purpose compression library by J. Gailly and M. Adler (zlib.net)
  GMP 6.1.2            GNU Multiple Precision Arithmetic Library developed by T. Granlund (gmplib.org)

user parameter file <scip.set> not found - using default parameters

read problem <../../Split_data/output/spectf/9/4_sample_spectf.logreg>
============

File name	:	../../Split_data/output/spectf/9/4_sample_spectf.logreg
Problem name 	:	4_sample_spectf
Number of data	:	214
Number of var	:	44
The given data has linear independence

[dim=1] time: 0.007954
[dim=2] time: 0.016039
[dim=3] time: 0.029241
[dim=4] time: 0.036161
[dim=5] time: 0.043227
[dim=6] time: 0.04992
[dim=7] time: 0.05794
[dim=8] time: 0.066613
[dim=9] time: 0.075222
[dim=10] time: 0.083281
[dim=11] time: 0.089162
[dim=12] Time of forward = 0.095982sec.
AIC: 121.88
k: 11

[dim=44] time: 0.033336
[dim=43] time: 0.054148
[dim=42] time: 0.073172
[dim=41] time: 0.088068
[dim=40] time: 0.104055
[dim=39] time: 0.115601
[dim=38] time: 0.129789
[dim=37] time: 0.143344
[dim=36] time: 0.15493
[dim=35] time: 0.165207
[dim=34] time: 0.177557
[dim=33] time: 0.18748
[dim=32] time: 0.198921
[dim=31] time: 0.213446
[dim=30] time: 0.225503
[dim=29] time: 0.236288
[dim=28] time: 0.248199
[dim=27] time: 0.257065
[dim=26] Time of backward = 0.264157sec.
AIC: 125.452
k: 27
